# Solution for model GasLib-40
# Objective value = 1.0577673609376626e+01
loadshed[innode_1] 0
loadshed[innode_2] 0
loadshed[innode_3] 0
loadshed[innode_4] 0
loadshed[innode_5] 0
loadshed[innode_6] 0
loadshed[innode_7] 0
loadshed[innode_8] 0
loadshed[source_1] -2.2868483183465238e-01
loadshed[source_2] 1.0290303667314848e-01
loadshed[source_3] 1.9269086609260333e-01
loadshed[sink_1] 0
loadshed[sink_2] 0
loadshed[sink_3] 0
loadshed[sink_4] 0
loadshed[sink_5] 0
loadshed[sink_6] 0
loadshed[sink_7] 0
loadshed[sink_8] 0
loadshed[sink_9] 0
loadshed[sink_10] 0
loadshed[sink_11] 0
loadshed[sink_12] 6.4678768566888922e-01
loadshed[sink_13] 0
loadshed[sink_14] 0
loadshed[sink_15] 0
loadshed[sink_16] 0
loadshed[sink_17] 0
loadshed[sink_18] 0
loadshed[sink_19] 0
loadshed[sink_20] 0
loadshed[sink_21] 0
loadshed[sink_22] 0
loadshed[sink_23] 0
loadshed[sink_24] 0
loadshed[sink_25] 0
loadshed[sink_26] 0
loadshed[sink_27] 0
loadshed[sink_28] 0
loadshed[sink_29] 0
flow[source_1,sink_3] 1.9424312636608238e+02
flow[innode_1,sink_16] 1.6354166666666970e+01
flow[innode_6,sink_13] -1.3148558565289449e+01
flow[sink_13,sink_14] -2.9502725231956116e+01
flow[sink_14,sink_10] -4.5856891898622784e+01
flow[sink_25,sink_26] 1.7636167920297726e+02
flow[sink_26,sink_9] 1.2400354119133411e+02
flow[sink_9,sink_18] 1.0764937452466744e+02
flow[sink_26,sink_4] 3.6003971344976492e+01
flow[sink_4,sink_20] -4.2018980520981245e+01
flow[sink_18,sink_6] 9.1295207858000765e+01
flow[sink_25,innode_8] -1.6153479303274602e+02
flow[sink_6,sink_7] 4.2232707858000595e+01
flow[sink_6,sink_22] 3.2708333333333641e+01
flow[sink_7,sink_24] 3.8484826390623383e+01
flow[sink_22,sink_1] 1.6354166666666970e+01
flow[sink_24,sink_21] 2.2130659723956711e+01
flow[sink_21,sink_12] 5.7764930572900424e+00
flow[sink_7,sink_5] -1.2606285199289246e+01
flow[sink_5,sink_17] -2.8960451865956088e+01
flow[sink_17,sink_4] -6.1668785199291278e+01
flow[sink_17,sink_8] 1.6354166666668334e+01
flow[sink_3,sink_23] 16.3541666666697
flow[sink_8,sink_20] 0
flow[sink_25,sink_20] 5.8373147187648044e+01
flow[sink_25,sink_15] -7.6405641459256756e+01
flow[sink_15,sink_29] -9.2759808125923428e+01
flow[sink_29,sink_28] 1.6354166666667879e+01
flow[sink_29,sink_2] 1.6354166666684250e+01
flow[sink_2,sink_15] 0
flow[sink_29,innode_7] -1.4182230812594287e+02
flow[innode_4,sink_19] 4.9823889795633541e+01
flow[sink_19,innode_3] 4.6320262591992680e+01
flow[innode_4,innode_5] 77.803835436324
flow[sink_27,innode_5] -77.803835436324
flow[sink_27,sink_19] 6.1449668769657322e+01
flow[sink_10,sink_11] 3.2708333333333641e+01
flow[sink_10,innode_2] -4.8599129306630410e+01
flow[sink_10,innode_3] -4.6320262591992680e+01
flow[innode_6,sink_25] 1.3148558565289449e+01
flow[sink_11,innode_1] 1.6354166666666970e+01
flow[sink_19,innode_2] 4.8599129306630410e+01
flow[source_3,innode_4] 1.2762772523195753e+02
flow[source_2,innode_7] 1.4182230812594287e+02
flow[sink_3,innode_8] 1.6153479303274602e+02
pressure[innode_1] 7.6274391259947265e+01
pressure[innode_2] 7.8994757272384120e+01
pressure[innode_3] 7.8892186296074883e+01
pressure[innode_4] 81.01325
pressure[innode_5] 8.0959732419377943e+01
pressure[innode_6] 74.131842524596
pressure[innode_7] 81.01325
pressure[innode_8] 8.0363969432122033e+01
pressure[source_1] 81.01325
pressure[source_2] 81.01325
pressure[source_3] 81.01325
pressure[sink_1] 4.5854854342799385e+01
pressure[sink_2] 7.6805789347421140e+01
pressure[sink_3] 8.0363969432122033e+01
pressure[sink_4] 5.7133154930562888e+01
pressure[sink_5] 5.2619032974924295e+01
pressure[sink_6] 4.7955931953186756e+01
pressure[sink_7] 4.7376177541835773e+01
pressure[sink_8] 5.4159292111365829e+01
pressure[sink_9] 5.4288861045169682e+01
pressure[sink_10] 7.6426092567550810e+01
pressure[sink_11] 7.6274391259947265e+01
pressure[sink_12] 1.0132500000000002e+00
pressure[sink_13] 7.4204328330638177e+01
pressure[sink_14] 7.4257125970517265e+01
pressure[sink_15] 74.5024843369987
pressure[sink_16] 7.5252741425129585e+01
pressure[sink_17] 5.4776377306779452e+01
pressure[sink_18] 5.0393785824551060e+01
pressure[sink_19] 7.8994757272384120e+01
pressure[sink_20] 6.0215862719178311e+01
pressure[sink_21] 3.0688423784802903e+00
pressure[sink_22] 4.6918623485154392e+01
pressure[sink_23] 8.0199251420462247e+01
pressure[sink_24] 3.3139188730879749e+00
pressure[sink_25] 74.131842524596
pressure[sink_26] 6.1710793029800868e+01
pressure[sink_27] 8.0314104351286048e+01
pressure[sink_28] 7.6924776572267618e+01
pressure[sink_29] 77.2200588458848
interdiction[source_1,sink_3] 0
interdiction[innode_1,sink_16] 0
interdiction[innode_6,sink_13] 0
interdiction[sink_13,sink_14] 0
interdiction[sink_14,sink_10] 0
interdiction[sink_25,sink_26] 0
interdiction[sink_26,sink_9] 0
interdiction[sink_9,sink_18] 0
interdiction[sink_26,sink_4] 0
interdiction[sink_4,sink_20] 0
interdiction[sink_18,sink_6] 0
interdiction[sink_25,innode_8] 0
interdiction[sink_6,sink_7] 0
interdiction[sink_6,sink_22] 0
interdiction[sink_7,sink_24] 0
interdiction[sink_22,sink_1] 0
interdiction[sink_24,sink_21] 0
interdiction[sink_21,sink_12] 0
interdiction[sink_7,sink_5] 0
interdiction[sink_5,sink_17] 0
interdiction[sink_17,sink_4] 0
interdiction[sink_17,sink_8] 0
interdiction[sink_3,sink_23] 0
interdiction[sink_8,sink_20] 1
interdiction[sink_25,sink_20] 0
interdiction[sink_25,sink_15] 0
interdiction[sink_15,sink_29] 0
interdiction[sink_29,sink_28] 0
interdiction[sink_29,sink_2] 0
interdiction[sink_2,sink_15] 1
interdiction[sink_29,innode_7] 0
interdiction[innode_4,sink_19] 0
interdiction[sink_19,innode_3] 0
interdiction[innode_4,innode_5] 0
interdiction[sink_27,innode_5] 0
interdiction[sink_27,sink_19] 0
interdiction[sink_10,sink_11] 0
interdiction[sink_10,innode_2] 0
interdiction[sink_10,innode_3] 0
interdiction[innode_6,sink_25] 0
interdiction[sink_11,innode_1] 0
interdiction[sink_19,innode_2] 0
interdiction[source_3,innode_4] 0
interdiction[source_2,innode_7] 0
interdiction[sink_3,innode_8] 0
WCcheckFlow[source_1,sink_3] 39
WCcheckFlow[innode_1,sink_16] 1
WCcheckFlow[innode_6,sink_13] 13
WCcheckFlow[sink_13,sink_14] 12
WCcheckFlow[sink_14,sink_10] 11
WCcheckFlow[sink_25,sink_26] 15
WCcheckFlow[sink_26,sink_9] 12
WCcheckFlow[sink_9,sink_18] 11
WCcheckFlow[sink_26,sink_4] 2
WCcheckFlow[sink_4,sink_20] 1
WCcheckFlow[sink_18,sink_6] 10
WCcheckFlow[sink_25,innode_8] -36
WCcheckFlow[sink_6,sink_7] 7
WCcheckFlow[sink_6,sink_22] 2
WCcheckFlow[sink_7,sink_24] 3
WCcheckFlow[sink_22,sink_1] 1
WCcheckFlow[sink_24,sink_21] 2
WCcheckFlow[sink_21,sink_12] 1
WCcheckFlow[sink_7,sink_5] 3
WCcheckFlow[sink_5,sink_17] 2
WCcheckFlow[sink_17,sink_4] 0
WCcheckFlow[sink_17,sink_8] 1
WCcheckFlow[sink_3,sink_23] 1
WCcheckFlow[sink_8,sink_20] 0
WCcheckFlow[sink_25,sink_20] 0
WCcheckFlow[sink_25,sink_15] 6
WCcheckFlow[sink_15,sink_29] 5
WCcheckFlow[sink_29,sink_28] 1
WCcheckFlow[sink_29,sink_2] 1
WCcheckFlow[sink_2,sink_15] 0
WCcheckFlow[sink_29,innode_7] 2
WCcheckFlow[innode_4,sink_19] -4
WCcheckFlow[sink_19,innode_3] -5
WCcheckFlow[innode_4,innode_5] 2
WCcheckFlow[sink_27,innode_5] -1
WCcheckFlow[sink_27,sink_19] 0
WCcheckFlow[sink_10,sink_11] 3
WCcheckFlow[sink_10,innode_2] 1
WCcheckFlow[sink_10,innode_3] 6
WCcheckFlow[innode_6,sink_25] -14
WCcheckFlow[sink_11,innode_1] 2
WCcheckFlow[sink_19,innode_2] 0
WCcheckFlow[source_3,innode_4] -1
WCcheckFlow[source_2,innode_7] -1
WCcheckFlow[sink_3,innode_8] 37
